p edge 70 737
e 1 5
e 1 13
e 1 24
e 1 28
e 1 33
e 1 35
e 1 36
e 1 37
e 1 41
e 1 45
e 1 47
e 1 51
e 1 53
e 1 62
e 1 63
e 1 64
e 1 67
e 1 69
e 1 70
e 2 3
e 2 13
e 2 16
e 2 18
e 2 23
e 2 24
e 2 25
e 2 26
e 2 29
e 2 31
e 2 34
e 2 39
e 2 40
e 2 45
e 2 52
e 2 53
e 2 55
e 2 59
e 2 68
e 3 4
e 3 5
e 3 10
e 3 13
e 3 16
e 3 19
e 3 24
e 3 25
e 3 26
e 3 27
e 3 36
e 3 43
e 3 48
e 3 55
e 3 58
e 3 60
e 3 69
e 4 11
e 4 13
e 4 15
e 4 18
e 4 19
e 4 21
e 4 23
e 4 28
e 4 29
e 4 39
e 4 46
e 4 48
e 4 50
e 4 51
e 4 56
e 4 59
e 4 60
e 4 64
e 4 66
e 4 69
e 5 6
e 5 9
e 5 12
e 5 13
e 5 17
e 5 19
e 5 28
e 5 30
e 5 36
e 5 38
e 5 39
e 5 42
e 5 50
e 5 51
e 5 52
e 5 55
e 5 57
e 5 58
e 5 69
e 5 70
e 6 9
e 6 11
e 6 14
e 6 17
e 6 22
e 6 23
e 6 25
e 6 26
e 6 27
e 6 34
e 6 37
e 6 41
e 6 43
e 6 44
e 6 46
e 6 48
e 6 49
e 6 55
e 6 58
e 6 59
e 6 60
e 6 61
e 6 68
e 7 11
e 7 16
e 7 17
e 7 22
e 7 25
e 7 27
e 7 30
e 7 36
e 7 39
e 7 42
e 7 50
e 7 52
e 7 53
e 7 55
e 7 57
e 7 59
e 7 62
e 7 67
e 8 11
e 8 18
e 8 19
e 8 20
e 8 23
e 8 25
e 8 26
e 8 27
e 8 40
e 8 43
e 8 49
e 8 59
e 8 60
e 8 64
e 8 65
e 8 66
e 8 68
e 9 19
e 9 21
e 9 23
e 9 29
e 9 30
e 9 31
e 9 35
e 9 36
e 9 37
e 9 40
e 9 51
e 9 52
e 9 53
e 9 59
e 9 60
e 9 63
e 9 64
e 10 11
e 10 14
e 10 17
e 10 18
e 10 20
e 10 25
e 10 31
e 10 32
e 10 44
e 10 53
e 10 56
e 10 57
e 10 59
e 10 63
e 10 66
e 10 68
e 10 70
e 11 13
e 11 14
e 11 17
e 11 19
e 11 24
e 11 26
e 11 29
e 11 32
e 11 37
e 11 38
e 11 42
e 11 44
e 11 56
e 11 58
e 11 64
e 11 65
e 11 67
e 12 15
e 12 16
e 12 19
e 12 22
e 12 23
e 12 26
e 12 27
e 12 29
e 12 35
e 12 36
e 12 37
e 12 38
e 12 51
e 12 55
e 12 56
e 12 58
e 12 59
e 12 60
e 12 61
e 13 14
e 13 17
e 13 22
e 13 28
e 13 31
e 13 34
e 13 38
e 13 39
e 13 49
e 13 56
e 13 58
e 13 67
e 13 68
e 13 70
e 14 18
e 14 23
e 14 26
e 14 39
e 14 46
e 14 54
e 14 59
e 14 60
e 14 62
e 14 63
e 14 64
e 14 65
e 14 68
e 15 18
e 15 20
e 15 21
e 15 25
e 15 27
e 15 30
e 15 43
e 15 45
e 15 51
e 15 57
e 15 58
e 15 61
e 15 67
e 15 68
e 15 70
e 16 19
e 16 23
e 16 26
e 16 31
e 16 32
e 16 35
e 16 37
e 16 38
e 16 39
e 16 40
e 16 44
e 16 45
e 16 49
e 16 56
e 16 59
e 16 62
e 16 63
e 16 66
e 16 67
e 17 19
e 17 22
e 17 23
e 17 25
e 17 26
e 17 27
e 17 30
e 17 33
e 17 36
e 17 43
e 17 44
e 17 45
e 17 47
e 17 50
e 17 51
e 17 52
e 17 53
e 17 54
e 17 55
e 17 56
e 17 58
e 17 60
e 17 61
e 17 65
e 17 66
e 18 21
e 18 23
e 18 25
e 18 27
e 18 28
e 18 30
e 18 34
e 18 38
e 18 44
e 18 45
e 18 48
e 18 51
e 18 57
e 18 59
e 18 61
e 18 62
e 18 64
e 18 67
e 18 70
e 19 20
e 19 22
e 19 25
e 19 26
e 19 28
e 19 29
e 19 32
e 19 34
e 19 36
e 19 37
e 19 40
e 19 41
e 19 42
e 19 48
e 19 49
e 19 50
e 19 54
e 19 56
e 19 58
e 19 59
e 19 63
e 19 64
e 19 66
e 19 67
e 19 69
e 19 70
e 20 26
e 20 37
e 20 39
e 20 40
e 20 44
e 20 46
e 20 48
e 20 53
e 20 57
e 20 65
e 20 68
e 20 69
e 21 22
e 21 23
e 21 27
e 21 28
e 21 39
e 21 41
e 21 42
e 21 46
e 21 48
e 21 54
e 21 56
e 21 58
e 21 59
e 21 60
e 21 65
e 21 67
e 21 68
e 22 26
e 22 27
e 22 32
e 22 33
e 22 42
e 22 49
e 22 57
e 22 58
e 22 60
e 22 62
e 22 63
e 22 66
e 22 67
e 22 68
e 23 27
e 23 28
e 23 36
e 23 39
e 23 40
e 23 41
e 23 43
e 23 45
e 23 51
e 23 56
e 23 57
e 23 61
e 23 66
e 23 70
e 24 30
e 24 40
e 24 43
e 24 45
e 24 46
e 24 50
e 24 53
e 24 55
e 24 63
e 24 64
e 24 65
e 24 69
e 24 70
e 25 29
e 25 31
e 25 33
e 25 34
e 25 39
e 25 42
e 25 50
e 25 58
e 25 61
e 25 62
e 25 63
e 25 66
e 25 68
e 26 28
e 26 29
e 26 30
e 26 31
e 26 34
e 26 35
e 26 37
e 26 44
e 26 47
e 26 49
e 26 50
e 26 52
e 26 53
e 26 55
e 26 56
e 26 57
e 26 60
e 26 67
e 26 69
e 27 28
e 27 37
e 27 43
e 27 45
e 27 49
e 27 50
e 27 54
e 27 61
e 27 62
e 27 67
e 28 31
e 28 35
e 28 41
e 28 44
e 28 45
e 28 50
e 28 51
e 28 53
e 28 59
e 28 63
e 28 65
e 28 66
e 28 68
e 29 34
e 29 37
e 29 38
e 29 39
e 29 40
e 29 41
e 29 50
e 29 51
e 29 52
e 29 54
e 29 63
e 29 65
e 29 68
e 30 31
e 30 35
e 30 44
e 30 52
e 30 54
e 30 61
e 30 62
e 30 63
e 30 65
e 30 66
e 30 67
e 31 33
e 31 34
e 31 36
e 31 45
e 31 46
e 31 49
e 31 51
e 31 52
e 31 53
e 31 54
e 31 56
e 31 57
e 31 61
e 31 62
e 31 63
e 31 69
e 32 33
e 32 36
e 32 39
e 32 43
e 32 47
e 32 51
e 32 52
e 32 61
e 32 63
e 32 69
e 33 35
e 33 37
e 33 38
e 33 45
e 33 54
e 33 57
e 33 58
e 33 61
e 33 62
e 33 64
e 33 67
e 33 70
e 34 36
e 34 39
e 34 40
e 34 41
e 34 42
e 34 48
e 34 50
e 34 53
e 34 55
e 34 64
e 34 66
e 35 37
e 35 38
e 35 40
e 35 52
e 35 56
e 35 57
e 35 59
e 35 60
e 35 64
e 35 65
e 35 70
e 36 39
e 36 40
e 36 42
e 36 44
e 36 48
e 36 53
e 36 56
e 36 59
e 36 60
e 36 61
e 36 62
e 36 65
e 36 67
e 37 40
e 37 44
e 37 47
e 37 49
e 37 54
e 37 57
e 37 58
e 37 65
e 37 68
e 38 39
e 38 40
e 38 44
e 38 45
e 38 50
e 38 52
e 38 56
e 38 58
e 38 59
e 38 61
e 38 68
e 38 69
e 38 70
e 39 62
e 39 63
e 40 43
e 40 44
e 40 46
e 40 48
e 40 49
e 40 51
e 40 53
e 40 57
e 40 62
e 41 42
e 41 49
e 41 58
e 41 60
e 41 62
e 41 63
e 41 65
e 41 66
e 41 69
e 41 70
e 42 44
e 42 46
e 42 48
e 42 50
e 42 53
e 42 55
e 42 66
e 42 69
e 43 50
e 43 52
e 43 60
e 43 63
e 43 64
e 43 68
e 44 46
e 44 47
e 44 48
e 44 50
e 44 57
e 44 58
e 44 59
e 44 61
e 44 63
e 44 66
e 44 67
e 44 68
e 44 69
e 45 48
e 45 49
e 45 51
e 45 55
e 45 57
e 45 60
e 45 62
e 45 63
e 46 47
e 46 58
e 46 59
e 46 62
e 46 63
e 46 66
e 46 70
e 47 48
e 47 57
e 47 59
e 47 61
e 47 62
e 47 66
e 47 67
e 47 68
e 48 50
e 48 51
e 48 56
e 48 57
e 48 58
e 48 61
e 48 63
e 48 65
e 48 69
e 49 53
e 49 55
e 49 63
e 49 65
e 50 51
e 50 54
e 50 56
e 50 59
e 50 61
e 50 64
e 50 68
e 51 62
e 51 66
e 51 68
e 52 55
e 52 59
e 52 62
e 52 67
e 53 56
e 53 58
e 53 59
e 53 60
e 53 62
e 53 65
e 54 58
e 54 60
e 54 68
e 55 57
e 55 61
e 55 62
e 55 63
e 55 66
e 55 68
e 55 69
e 56 59
e 56 61
e 56 65
e 56 66
e 57 63
e 57 66
e 57 67
e 57 69
e 58 65
e 58 66
e 58 69
e 59 67
e 60 64
e 60 69
e 61 63
e 61 65
e 62 63
e 63 64
e 63 69
e 64 67
e 64 69
e 65 67
e 66 69
e 67 69
e 68 70